NAME : XML100_3243_05
DIMENSION : 101
NB_CLUSTERS : 3
CLUSTERING_ALG : DBSCAN
CLUSTERING_PARAMS : eps(143), minSamples(3)
CLUSTERS
1 0
2 1 4 8 10 12 13 14 15 16 17 19 21 22 24 25 26 28 29 31 32 33 34 35 36 37 39 41 42 46 47 48 49 52 54 55 56 57 58 59 60 61 62 63 64 65 66 67 68 69 70 73 74 76 77 78 81 83 84 85 87 88 89 90 92 93 94 95 96 98 99 100
3 2 3 5 6 7 9 11 18 20 23 27 30 38 40 43 44 45 50 51 53 71 72 75 79 80 82 86 91 97
EOF